\ Model pangeblocks
\ LP format - for model browsing. Use MPS format to capture full model detail.
Minimize
  C[1,2,0,3] + C[0,1,4,5] + C[0,1,2,5,5] + C[1,2,0,0] + C[0,1,1,4]
   + C[0,1,1,5] + C[0,1,2,1,3] + C[0,0,0] + C[1,0,0] + C[2,0,0] + C[0,1,1]
   + C[1,1,1] + C[2,1,1] + C[0,2,2] + C[1,2,2] + C[2,2,2] + C[0,3,3]
   + C[1,3,3] + C[2,3,3] + C[0,4,4] + C[1,4,4] + C[2,4,4] + C[0,5,5]
   + C[1,5,5] + C[2,5,5]
Subject To
 constraint1(0,0): - C[0,0,0] + U[0,0] <= 0
 constraint2(0,0): U[0,0] >= 1
 constraint1(0,1): - C[0,1,1,4] - C[0,1,1,5] - C[0,1,2,1,3] - C[0,1,1]
   + U[0,1] <= 0
 constraint2(0,1): U[0,1] >= 1
 constraint1(0,2): - C[0,1,1,4] - C[0,1,1,5] - C[0,1,2,1,3] - C[0,2,2]
   + U[0,2] <= 0
 constraint2(0,2): U[0,2] >= 1
 constraint1(0,3): - C[0,1,1,4] - C[0,1,1,5] - C[0,1,2,1,3] - C[0,3,3]
   + U[0,3] <= 0
 constraint2(0,3): U[0,3] >= 1
 constraint1(0,4): - C[0,1,4,5] - C[0,1,1,4] - C[0,1,1,5] - C[0,4,4]
   + U[0,4] <= 0
 constraint2(0,4): U[0,4] >= 1
 constraint1(0,5): - C[0,1,4,5] - C[0,1,2,5,5] - C[0,1,1,5] - C[0,5,5]
   + U[0,5] <= 0
 constraint2(0,5): U[0,5] >= 1
 constraint1(1,0): - C[1,2,0,3] - C[1,2,0,0] - C[1,0,0] + U[1,0] <= 0
 constraint2(1,0): U[1,0] >= 1
 constraint1(1,1): - C[1,2,0,3] - C[0,1,1,4] - C[0,1,1,5] - C[0,1,2,1,3]
   - C[1,1,1] + U[1,1] <= 0
 constraint2(1,1): U[1,1] >= 1
 constraint1(1,2): - C[1,2,0,3] - C[0,1,1,4] - C[0,1,1,5] - C[0,1,2,1,3]
   - C[1,2,2] + U[1,2] <= 0
 constraint2(1,2): U[1,2] >= 1
 constraint1(1,3): - C[1,2,0,3] - C[0,1,1,4] - C[0,1,1,5] - C[0,1,2,1,3]
   - C[1,3,3] + U[1,3] <= 0
 constraint2(1,3): U[1,3] >= 1
 constraint1(1,4): - C[0,1,4,5] - C[0,1,1,4] - C[0,1,1,5] - C[1,4,4]
   + U[1,4] <= 0
 constraint2(1,4): U[1,4] >= 1
 constraint1(1,5): - C[0,1,4,5] - C[0,1,2,5,5] - C[0,1,1,5] - C[1,5,5]
   + U[1,5] <= 0
 constraint2(1,5): U[1,5] >= 1
 constraint1(2,0): - C[1,2,0,3] - C[1,2,0,0] - C[2,0,0] + U[2,0] <= 0
 constraint2(2,0): U[2,0] >= 1
 constraint1(2,1): - C[1,2,0,3] - C[0,1,2,1,3] - C[2,1,1] + U[2,1] <= 0
 constraint2(2,1): U[2,1] >= 1
 constraint1(2,2): - C[1,2,0,3] - C[0,1,2,1,3] - C[2,2,2] + U[2,2] <= 0
 constraint2(2,2): U[2,2] >= 1
 constraint1(2,3): - C[1,2,0,3] - C[0,1,2,1,3] - C[2,3,3] + U[2,3] <= 0
 constraint2(2,3): U[2,3] >= 1
 constraint1(2,4): - C[2,4,4] + U[2,4] <= 0
 constraint2(2,4): U[2,4] >= 1
 constraint1(2,5): - C[0,1,2,5,5] - C[2,5,5] + U[2,5] <= 0
 constraint2(2,5): U[2,5] >= 1
 constraint3(1,2,0,3)-(1,2,0,0): C[1,2,0,3] + C[1,2,0,0] <= 1
 constraint3(1,2,0,3)-(1,0,0): C[1,2,0,3] + C[1,0,0] <= 1
 constraint3(1,2,0,3)-(2,0,0): C[1,2,0,3] + C[2,0,0] <= 1
 constraint3(1,2,0,3)-(0,1,1,4): C[1,2,0,3] + C[0,1,1,4] <= 1
 constraint3(1,2,0,3)-(0,1,1,5): C[1,2,0,3] + C[0,1,1,5] <= 1
 constraint3(1,2,0,3)-(0,1,2,1,3): C[1,2,0,3] + C[0,1,2,1,3] <= 1
 constraint3(1,2,0,3)-(1,1,1): C[1,2,0,3] + C[1,1,1] <= 1
 constraint3(1,2,0,3)-(2,1,1): C[1,2,0,3] + C[2,1,1] <= 1
 constraint3(1,2,0,3)-(1,2,2): C[1,2,0,3] + C[1,2,2] <= 1
 constraint3(1,2,0,3)-(2,2,2): C[1,2,0,3] + C[2,2,2] <= 1
 constraint3(1,2,0,3)-(1,3,3): C[1,2,0,3] + C[1,3,3] <= 1
 constraint3(1,2,0,3)-(2,3,3): C[1,2,0,3] + C[2,3,3] <= 1
 constraint3(1,2,0,0)-(1,0,0): C[1,2,0,0] + C[1,0,0] <= 1
 constraint3(1,2,0,0)-(2,0,0): C[1,2,0,0] + C[2,0,0] <= 1
 constraint3(0,1,1,4)-(0,1,1,5): C[0,1,1,4] + C[0,1,1,5] <= 1
 constraint3(0,1,1,4)-(0,1,2,1,3): C[0,1,1,4] + C[0,1,2,1,3] <= 1
 constraint3(0,1,1,4)-(0,1,1): C[0,1,1,4] + C[0,1,1] <= 1
 constraint3(0,1,1,4)-(1,1,1): C[0,1,1,4] + C[1,1,1] <= 1
 constraint3(0,1,1,4)-(0,2,2): C[0,1,1,4] + C[0,2,2] <= 1
 constraint3(0,1,1,4)-(1,2,2): C[0,1,1,4] + C[1,2,2] <= 1
 constraint3(0,1,1,4)-(0,3,3): C[0,1,1,4] + C[0,3,3] <= 1
 constraint3(0,1,1,4)-(1,3,3): C[0,1,1,4] + C[1,3,3] <= 1
 constraint3(0,1,1,4)-(0,1,4,5): C[0,1,4,5] + C[0,1,1,4] <= 1
 constraint3(0,1,1,4)-(0,4,4): C[0,1,1,4] + C[0,4,4] <= 1
 constraint3(0,1,1,4)-(1,4,4): C[0,1,1,4] + C[1,4,4] <= 1
 constraint3(0,1,1,5)-(0,1,2,1,3): C[0,1,1,5] + C[0,1,2,1,3] <= 1
 constraint3(0,1,1,5)-(0,1,1): C[0,1,1,5] + C[0,1,1] <= 1
 constraint3(0,1,1,5)-(1,1,1): C[0,1,1,5] + C[1,1,1] <= 1
 constraint3(0,1,1,5)-(0,2,2): C[0,1,1,5] + C[0,2,2] <= 1
 constraint3(0,1,1,5)-(1,2,2): C[0,1,1,5] + C[1,2,2] <= 1
 constraint3(0,1,1,5)-(0,3,3): C[0,1,1,5] + C[0,3,3] <= 1
 constraint3(0,1,1,5)-(1,3,3): C[0,1,1,5] + C[1,3,3] <= 1
 constraint3(0,1,1,5)-(0,1,4,5): C[0,1,4,5] + C[0,1,1,5] <= 1
 constraint3(0,1,1,5)-(0,4,4): C[0,1,1,5] + C[0,4,4] <= 1
 constraint3(0,1,1,5)-(1,4,4): C[0,1,1,5] + C[1,4,4] <= 1
 constraint3(0,1,1,5)-(0,1,2,5,5): C[0,1,2,5,5] + C[0,1,1,5] <= 1
 constraint3(0,1,1,5)-(0,5,5): C[0,1,1,5] + C[0,5,5] <= 1
 constraint3(0,1,1,5)-(1,5,5): C[0,1,1,5] + C[1,5,5] <= 1
 constraint3(0,1,2,1,3)-(0,1,1): C[0,1,2,1,3] + C[0,1,1] <= 1
 constraint3(0,1,2,1,3)-(1,1,1): C[0,1,2,1,3] + C[1,1,1] <= 1
 constraint3(0,1,2,1,3)-(2,1,1): C[0,1,2,1,3] + C[2,1,1] <= 1
 constraint3(0,1,2,1,3)-(0,2,2): C[0,1,2,1,3] + C[0,2,2] <= 1
 constraint3(0,1,2,1,3)-(1,2,2): C[0,1,2,1,3] + C[1,2,2] <= 1
 constraint3(0,1,2,1,3)-(2,2,2): C[0,1,2,1,3] + C[2,2,2] <= 1
 constraint3(0,1,2,1,3)-(0,3,3): C[0,1,2,1,3] + C[0,3,3] <= 1
 constraint3(0,1,2,1,3)-(1,3,3): C[0,1,2,1,3] + C[1,3,3] <= 1
 constraint3(0,1,2,1,3)-(2,3,3): C[0,1,2,1,3] + C[2,3,3] <= 1
 constraint3(0,1,4,5)-(0,4,4): C[0,1,4,5] + C[0,4,4] <= 1
 constraint3(0,1,4,5)-(1,4,4): C[0,1,4,5] + C[1,4,4] <= 1
 constraint3(0,1,4,5)-(0,1,2,5,5): C[0,1,4,5] + C[0,1,2,5,5] <= 1
 constraint3(0,1,4,5)-(0,5,5): C[0,1,4,5] + C[0,5,5] <= 1
 constraint3(0,1,4,5)-(1,5,5): C[0,1,4,5] + C[1,5,5] <= 1
 constraint3(0,1,2,5,5)-(0,5,5): C[0,1,2,5,5] + C[0,5,5] <= 1
 constraint3(0,1,2,5,5)-(1,5,5): C[0,1,2,5,5] + C[1,5,5] <= 1
 constraint3(0,1,2,5,5)-(2,5,5): C[0,1,2,5,5] + C[2,5,5] <= 1
Bounds
Binaries
 C[1,2,0,3] C[0,1,4,5] C[0,1,2,5,5] C[1,2,0,0] C[0,1,1,4] C[0,1,1,5]
 C[0,1,2,1,3] C[0,0,0] C[1,0,0] C[2,0,0] C[0,1,1] C[1,1,1] C[2,1,1]
 C[0,2,2] C[1,2,2] C[2,2,2] C[0,3,3] C[1,3,3] C[2,3,3] C[0,4,4] C[1,4,4]
 C[2,4,4] C[0,5,5] C[1,5,5] C[2,5,5] U[0,0] U[0,1] U[0,2] U[0,3] U[0,4]
 U[0,5] U[1,0] U[1,1] U[1,2] U[1,3] U[1,4] U[1,5] U[2,0] U[2,1] U[2,2]
 U[2,3] U[2,4] U[2,5]
End
